36nstance num 

--max height = 40
--width =15
--X coordinates [0, 0, 2, 14, 0, 12, 13, 13, 9, 14, 3, 1, 7, 13, 12, 0, 0, 9, 9, 0, 12, 10, 10, 7, 0]
--Y coordinates [12, 24, 5, 10, 5, 15, 33, 28, 21, 15, 0, 31, 12, 21, 0, 31, 35, 5, 0, 8, 10, 30, 21, 24, 0]
--X dimensions [7, 7, 1, 1, 2, 2, 2, 2, 1, 1, 6, 6, 2, 2, 3, 1, 1, 3, 3, 2, 2, 3, 3, 3, 3]
--Y dimensions [12, 7, 7, 5, 3, 6, 7, 5, 3, 6, 12, 9, 12, 7, 10, 4, 5, 16, 5, 4, 5, 10, 9, 16, 5]
% time elapsed: 0.74 s
----------
%%%mzn-stat: initTime=0.000546
%%%mzn-stat: solveTime=0.603903
%%%mzn-stat: solutions=1
%%%mzn-stat: variables=51
%%%mzn-stat: propagators=30
%%%mzn-stat: propagations=295304
%%%mzn-stat: nodes=91519
%%%mzn-stat: failures=45696
%%%mzn-stat: restarts=0
%%%mzn-stat: peakDepth=80
%%%mzn-stat-end
